p edge 15 30
e 1 2
e 1 3
e 1 11
e 1 13
e 1 15
e 2 4
e 2 7
e 2 8
e 3 4
e 3 5
e 3 6
e 3 11
e 3 14
e 3 15
e 4 5
e 4 6
e 4 8
e 4 9
e 4 14
e 5 9
e 5 14
e 6 9
e 7 8
e 7 10
e 9 10
e 9 11
e 10 11
e 11 15
e 12 13
e 14 15
